(set-logic QF_S)
(set-option :parse-transducers true)
(set-option :produce-models true)
(define-fun-rec toLower ((x String) (y String)) Bool
   (or (and (= x "") (= y ""))
       (and (not (= x "")) (not (= y ""))
           (= (char.code (str.head y))
               (ite (and (<= 65 (char.code (str.head x)))
                       (<= (char.code (str.head x)) 90))
                   (+ (char.code (str.head x)) 32)
                   (char.code (str.head x))))
           (toLower (str.tail x) (str.tail y))))
)
(declare-fun r1[$i2] () String)
(declare-fun $r3 () String)
(declare-fun L67  () String)
(declare-fun L89  () String)
(declare-fun L9  () String)
(declare-fun L30  () String)
(declare-fun L32  () String)
(declare-fun L54  () String)
(declare-fun L3  () String)
(declare-fun L1  () String)
(declare-fun L27  () String)
(declare-fun L0  () String)
(assert (toLower $r3  L0 ))
(assert (toLower "field"  L27 ))
(assert (toLower "name"  L1 ))
(assert (toLower "description"  L3 ))
(assert (toLower "option"  L54 ))
(assert (toLower "type"  L32 ))
(assert (toLower r1[$i2]  L30 ))
(assert (toLower "length"  L9 ))
(assert (toLower "database"  L89 ))
(assert (toLower "table"  L67 ))

(assert (not (= L0 L1 )))
(assert (not (= L0 L3 )))
(assert (not (= L0 L1 )))
(assert (not (= L0 L3 )))
(assert (not (= L0 L9 )))
(assert (not (= L0 L1 )))
(assert (= L0 L3 ))
(assert (= L0 L3 ))
(assert (not (= L0 L3 )))
(assert (not (= L0 L1 )))
(assert (= L0 L1 ))
(assert (= L0 L1 ))
(assert (not (= L0 L3 )))
(assert (= L0 L27 ))
(assert (not (= L0 L1 )))
(assert (not (= L30 "sql" )))
(assert (= L0 L32 ))
(assert (not (= L0 L27 )))
(assert (not (= L0 L1 )))
(assert (= L0 L27 ))
(assert (not (= L0 L1 )))
(assert (not (= L0 L3 )))
(assert (not (= L0 L32 )))
(assert (not (= L0 L1 )))
(assert (= L0 L3 ))
(assert (not (= L0 L9 )))
(assert (= L0 L1 ))
(assert (= L0 L54 ))
(assert (not (= L0 L1 )))
(assert (not (= L0 L3 )))
(assert (= L30 "html" ))
(assert (not (= L0 L32 )))
(assert (not (= L0 L9 )))
(assert (not (= L0 L1 )))
(assert (not (= L0 L67 )))
(assert (not (= L0 L3 )))
(assert (not (= L0 L1 )))
(assert (= L0 L54 ))
(assert (= L0 L32 ))
(assert (not (= L0 L3 )))
(assert (not (= L0 L1 )))
(assert (= L0 L54 ))
(assert (= L0 L3 ))
(assert (not (= L0 L1 )))
(assert (not (= L0 L67 )))
(assert (= L0 L89 ))
(assert (not (= L0 L1 )))
(assert (not (= L0 L3 )))
(assert (= L0 L67 ))
(assert (= L0 L1 ))
(assert (= L0 L9 ))
(assert (not (= L0 L3 )))
(assert (not (= L0 L3 )))
(assert (not (= L0 L32 )))
(assert (not (= L0 L1 )))
(assert (not (= L0 L1 )))
(assert (not (= L0 L3 )))
(assert (not (= L0 L32 )))
(check-sat)
(get-model)
(exit)
